peakDumbCharging = 11100; 
Machine = anon_enum(16); 
machineSpeed = [3700,3700,3700,3700,3700,3700,3700,3700,3700,3700,3700,3700,3700,3700,3700,3700]; 
machineLoad = [3700,3700,3700,3700,3700,3700,3700,3700,3700,3700,3700,3700,3700,3700,3700,3700]; 
Car = anon_enum(11); 
demandCar = [3920,19680,15040,3200,16880,6880,18800,9240,9680,9400,5960]; 
arrivalCar = [78,70,69,61,58,54,46,45,43,41,32]; 
departureCar = [80,77,75,67,67,59,52,51,55,45,36]; 
